p cnf 960 1800
-21 -541 -501 0 
-21 -542 -501 0 
-21 -543 -501 0 
-21 -544 -501 0 
-21 -545 -501 0 
-21 -546 -501 0 
-21 -547 -501 0 
-21 -548 -501 0 
-21 -549 -501 0 
-21 -550 -501 0 
-21 -551 -501 0 
-21 -552 -501 0 
-21 -553 -501 0 
-21 -554 -501 0 
-21 -555 -501 0 
-21 -556 -501 0 
-21 -557 -501 0 
-21 -558 -501 0 
-21 -559 -501 0 
-21 -560 -501 0 
-42 -561 -502 0 
-42 -562 -502 0 
-42 -563 -502 0 
-42 -564 -502 0 
-42 -565 -502 0 
-42 -566 -502 0 
-42 -567 -502 0 
-42 -568 -502 0 
-42 -569 -502 0 
-42 -570 -502 0 
-42 -571 -502 0 
-42 -572 -502 0 
-42 -573 -502 0 
-42 -574 -502 0 
-42 -575 -502 0 
-42 -576 -502 0 
-42 -577 -502 0 
-42 -578 -502 0 
-42 -579 -502 0 
-42 -580 -502 0 
-63 -581 -503 0 
-63 -582 -503 0 
-63 -583 -503 0 
-63 -584 -503 0 
-63 -585 -503 0 
-63 -586 -503 0 
-63 -587 -503 0 
-63 -588 -503 0 
-63 -589 -503 0 
-63 -590 -503 0 
-63 -591 -503 0 
-63 -592 -503 0 
-63 -593 -503 0 
-63 -594 -503 0 
-63 -595 -503 0 
-63 -596 -503 0 
-63 -597 -503 0 
-63 -598 -503 0 
-63 -599 -503 0 
-63 -600 -503 0 
-84 -601 -504 0 
-84 -602 -504 0 
-84 -603 -504 0 
-84 -604 -504 0 
-84 -605 -504 0 
-84 -606 -504 0 
-84 -607 -504 0 
-84 -608 -504 0 
-84 -609 -504 0 
-84 -610 -504 0 
-84 -611 -504 0 
-84 -612 -504 0 
-84 -613 -504 0 
-84 -614 -504 0 
-84 -615 -504 0 
-84 -616 -504 0 
-84 -617 -504 0 
-84 -618 -504 0 
-84 -619 -504 0 
-84 -620 -504 0 
-105 -621 -505 0 
-105 -622 -505 0 
-105 -623 -505 0 
-105 -624 -505 0 
-105 -625 -505 0 
-105 -626 -505 0 
-105 -627 -505 0 
-105 -628 -505 0 
-105 -629 -505 0 
-105 -630 -505 0 
-105 -631 -505 0 
-105 -632 -505 0 
-105 -633 -505 0 
-105 -634 -505 0 
-105 -635 -505 0 
-105 -636 -505 0 
-105 -637 -505 0 
-105 -638 -505 0 
-105 -639 -505 0 
-105 -640 -505 0 
-126 -641 -506 0 
-126 -642 -506 0 
-126 -643 -506 0 
-126 -644 -506 0 
-126 -645 -506 0 
-126 -646 -506 0 
-126 -647 -506 0 
-126 -648 -506 0 
-126 -649 -506 0 
-126 -650 -506 0 
-126 -651 -506 0 
-126 -652 -506 0 
-126 -653 -506 0 
-126 -654 -506 0 
-126 -655 -506 0 
-126 -656 -506 0 
-126 -657 -506 0 
-126 -658 -506 0 
-126 -659 -506 0 
-126 -660 -506 0 
-147 -661 -507 0 
-147 -662 -507 0 
-147 -663 -507 0 
-147 -664 -507 0 
-147 -665 -507 0 
-147 -666 -507 0 
-147 -667 -507 0 
-147 -668 -507 0 
-147 -669 -507 0 
-147 -670 -507 0 
-147 -671 -507 0 
-147 -672 -507 0 
-147 -673 -507 0 
-147 -674 -507 0 
-147 -675 -507 0 
-147 -676 -507 0 
-147 -677 -507 0 
-147 -678 -507 0 
-147 -679 -507 0 
-147 -680 -507 0 
-168 -681 -508 0 
-168 -682 -508 0 
-168 -683 -508 0 
-168 -684 -508 0 
-168 -685 -508 0 
-168 -686 -508 0 
-168 -687 -508 0 
-168 -688 -508 0 
-168 -689 -508 0 
-168 -690 -508 0 
-168 -691 -508 0 
-168 -692 -508 0 
-168 -693 -508 0 
-168 -694 -508 0 
-168 -695 -508 0 
-168 -696 -508 0 
-168 -697 -508 0 
-168 -698 -508 0 
-168 -699 -508 0 
-168 -700 -508 0 
-189 -701 -509 0 
-189 -702 -509 0 
-189 -703 -509 0 
-189 -704 -509 0 
-189 -705 -509 0 
-189 -706 -509 0 
-189 -707 -509 0 
-189 -708 -509 0 
-189 -709 -509 0 
-189 -710 -509 0 
-189 -711 -509 0 
-189 -712 -509 0 
-189 -713 -509 0 
-189 -714 -509 0 
-189 -715 -509 0 
-189 -716 -509 0 
-189 -717 -509 0 
-189 -718 -509 0 
-189 -719 -509 0 
-189 -720 -509 0 
-210 -721 -510 0 
-210 -722 -510 0 
-210 -723 -510 0 
-210 -724 -510 0 
-210 -725 -510 0 
-210 -726 -510 0 
-210 -727 -510 0 
-210 -728 -510 0 
-210 -729 -510 0 
-210 -730 -510 0 
-210 -731 -510 0 
-210 -732 -510 0 
-210 -733 -510 0 
-210 -734 -510 0 
-210 -735 -510 0 
-210 -736 -510 0 
-210 -737 -510 0 
-210 -738 -510 0 
-210 -739 -510 0 
-210 -740 -510 0 
-231 -741 -511 0 
-231 -742 -511 0 
-231 -743 -511 0 
-231 -744 -511 0 
-231 -745 -511 0 
-231 -746 -511 0 
-231 -747 -511 0 
-231 -748 -511 0 
-231 -749 -511 0 
-231 -750 -511 0 
-231 -751 -511 0 
-231 -752 -511 0 
-231 -753 -511 0 
-231 -754 -511 0 
-231 -755 -511 0 
-231 -756 -511 0 
-231 -757 -511 0 
-231 -758 -511 0 
-231 -759 -511 0 
-231 -760 -511 0 
-252 -761 -512 0 
-252 -762 -512 0 
-252 -763 -512 0 
-252 -764 -512 0 
-252 -765 -512 0 
-252 -766 -512 0 
-252 -767 -512 0 
-252 -768 -512 0 
-252 -769 -512 0 
-252 -770 -512 0 
-252 -771 -512 0 
-252 -772 -512 0 
-252 -773 -512 0 
-252 -774 -512 0 
-252 -775 -512 0 
-252 -776 -512 0 
-252 -777 -512 0 
-252 -778 -512 0 
-252 -779 -512 0 
-252 -780 -512 0 
-273 -781 -513 0 
-273 -782 -513 0 
-273 -783 -513 0 
-273 -784 -513 0 
-273 -785 -513 0 
-273 -786 -513 0 
-273 -787 -513 0 
-273 -788 -513 0 
-273 -789 -513 0 
-273 -790 -513 0 
-273 -791 -513 0 
-273 -792 -513 0 
-273 -793 -513 0 
-273 -794 -513 0 
-273 -795 -513 0 
-273 -796 -513 0 
-273 -797 -513 0 
-273 -798 -513 0 
-273 -799 -513 0 
-273 -800 -513 0 
-294 -801 -514 0 
-294 -802 -514 0 
-294 -803 -514 0 
-294 -804 -514 0 
-294 -805 -514 0 
-294 -806 -514 0 
-294 -807 -514 0 
-294 -808 -514 0 
-294 -809 -514 0 
-294 -810 -514 0 
-294 -811 -514 0 
-294 -812 -514 0 
-294 -813 -514 0 
-294 -814 -514 0 
-294 -815 -514 0 
-294 -816 -514 0 
-294 -817 -514 0 
-294 -818 -514 0 
-294 -819 -514 0 
-294 -820 -514 0 
-315 -821 -515 0 
-315 -822 -515 0 
-315 -823 -515 0 
-315 -824 -515 0 
-315 -825 -515 0 
-315 -826 -515 0 
-315 -827 -515 0 
-315 -828 -515 0 
-315 -829 -515 0 
-315 -830 -515 0 
-315 -831 -515 0 
-315 -832 -515 0 
-315 -833 -515 0 
-315 -834 -515 0 
-315 -835 -515 0 
-315 -836 -515 0 
-315 -837 -515 0 
-315 -838 -515 0 
-315 -839 -515 0 
-315 -840 -515 0 
-336 -841 -516 0 
-336 -842 -516 0 
-336 -843 -516 0 
-336 -844 -516 0 
-336 -845 -516 0 
-336 -846 -516 0 
-336 -847 -516 0 
-336 -848 -516 0 
-336 -849 -516 0 
-336 -850 -516 0 
-336 -851 -516 0 
-336 -852 -516 0 
-336 -853 -516 0 
-336 -854 -516 0 
-336 -855 -516 0 
-336 -856 -516 0 
-336 -857 -516 0 
-336 -858 -516 0 
-336 -859 -516 0 
-336 -860 -516 0 
-357 -861 -517 0 
-357 -862 -517 0 
-357 -863 -517 0 
-357 -864 -517 0 
-357 -865 -517 0 
-357 -866 -517 0 
-357 -867 -517 0 
-357 -868 -517 0 
-357 -869 -517 0 
-357 -870 -517 0 
-357 -871 -517 0 
-357 -872 -517 0 
-357 -873 -517 0 
-357 -874 -517 0 
-357 -875 -517 0 
-357 -876 -517 0 
-357 -877 -517 0 
-357 -878 -517 0 
-357 -879 -517 0 
-357 -880 -517 0 
-378 -881 -518 0 
-378 -882 -518 0 
-378 -883 -518 0 
-378 -884 -518 0 
-378 -885 -518 0 
-378 -886 -518 0 
-378 -887 -518 0 
-378 -888 -518 0 
-378 -889 -518 0 
-378 -890 -518 0 
-378 -891 -518 0 
-378 -892 -518 0 
-378 -893 -518 0 
-378 -894 -518 0 
-378 -895 -518 0 
-378 -896 -518 0 
-378 -897 -518 0 
-378 -898 -518 0 
-378 -899 -518 0 
-378 -900 -518 0 
-399 -901 -519 0 
-399 -902 -519 0 
-399 -903 -519 0 
-399 -904 -519 0 
-399 -905 -519 0 
-399 -906 -519 0 
-399 -907 -519 0 
-399 -908 -519 0 
-399 -909 -519 0 
-399 -910 -519 0 
-399 -911 -519 0 
-399 -912 -519 0 
-399 -913 -519 0 
-399 -914 -519 0 
-399 -915 -519 0 
-399 -916 -519 0 
-399 -917 -519 0 
-399 -918 -519 0 
-399 -919 -519 0 
-399 -920 -519 0 
-420 -921 -520 0 
-420 -922 -520 0 
-420 -923 -520 0 
-420 -924 -520 0 
-420 -925 -520 0 
-420 -926 -520 0 
-420 -927 -520 0 
-420 -928 -520 0 
-420 -929 -520 0 
-420 -930 -520 0 
-420 -931 -520 0 
-420 -932 -520 0 
-420 -933 -520 0 
-420 -934 -520 0 
-420 -935 -520 0 
-420 -936 -520 0 
-420 -937 -520 0 
-420 -938 -520 0 
-420 -939 -520 0 
-420 -940 -520 0 
-441 -941 -521 0 
-443 -942 -522 0 
-445 -943 -523 0 
-447 -944 -524 0 
-449 -945 -525 0 
-451 -946 -526 0 
-453 -947 -527 0 
-455 -948 -528 0 
-457 -949 -529 0 
-459 -950 -530 0 
-461 -951 -531 0 
-463 -952 -532 0 
-465 -953 -533 0 
-467 -954 -534 0 
-469 -955 -535 0 
-471 -956 -536 0 
-473 -957 -537 0 
-475 -958 -538 0 
-477 -959 -539 0 
-479 -960 -540 0 
-1 481 0 
1 -481 0 
-2 482 0 
2 -482 0 
-3 483 0 
3 -483 0 
-4 484 0 
4 -484 0 
-5 485 0 
5 -485 0 
-6 486 0 
6 -486 0 
-7 487 0 
7 -487 0 
-8 488 0 
8 -488 0 
-9 489 0 
9 -489 0 
-10 490 0 
10 -490 0 
-11 491 0 
11 -491 0 
-12 492 0 
12 -492 0 
-13 493 0 
13 -493 0 
-14 494 0 
14 -494 0 
-15 495 0 
15 -495 0 
-16 496 0 
16 -496 0 
-17 497 0 
17 -497 0 
-18 498 0 
18 -498 0 
-19 499 0 
19 -499 0 
-20 500 0 
20 -500 0 
-21 -541 22 0 
-22 21 0 
-22 541 0 
-21 -542 23 0 
-23 21 0 
-23 542 0 
-21 -543 24 0 
-24 21 0 
-24 543 0 
-21 -544 25 0 
-25 21 0 
-25 544 0 
-21 -545 26 0 
-26 21 0 
-26 545 0 
-21 -546 27 0 
-27 21 0 
-27 546 0 
-21 -547 28 0 
-28 21 0 
-28 547 0 
-21 -548 29 0 
-29 21 0 
-29 548 0 
-21 -549 30 0 
-30 21 0 
-30 549 0 
-21 -550 31 0 
-31 21 0 
-31 550 0 
-21 -551 32 0 
-32 21 0 
-32 551 0 
-21 -552 33 0 
-33 21 0 
-33 552 0 
-21 -553 34 0 
-34 21 0 
-34 553 0 
-21 -554 35 0 
-35 21 0 
-35 554 0 
-21 -555 36 0 
-36 21 0 
-36 555 0 
-21 -556 37 0 
-37 21 0 
-37 556 0 
-21 -557 38 0 
-38 21 0 
-38 557 0 
-21 -558 39 0 
-39 21 0 
-39 558 0 
-21 -559 40 0 
-40 21 0 
-40 559 0 
-21 -560 41 0 
-41 21 0 
-41 560 0 
22 23 24 25 26 27 28 29 30 31 32 33 34 35 36 37 38 39 40 41 -21 501 0 
21 -501 0 
-42 -561 43 0 
-43 42 0 
-43 561 0 
-42 -562 44 0 
-44 42 0 
-44 562 0 
-42 -563 45 0 
-45 42 0 
-45 563 0 
-42 -564 46 0 
-46 42 0 
-46 564 0 
-42 -565 47 0 
-47 42 0 
-47 565 0 
-42 -566 48 0 
-48 42 0 
-48 566 0 
-42 -567 49 0 
-49 42 0 
-49 567 0 
-42 -568 50 0 
-50 42 0 
-50 568 0 
-42 -569 51 0 
-51 42 0 
-51 569 0 
-42 -570 52 0 
-52 42 0 
-52 570 0 
-42 -571 53 0 
-53 42 0 
-53 571 0 
-42 -572 54 0 
-54 42 0 
-54 572 0 
-42 -573 55 0 
-55 42 0 
-55 573 0 
-42 -574 56 0 
-56 42 0 
-56 574 0 
-42 -575 57 0 
-57 42 0 
-57 575 0 
-42 -576 58 0 
-58 42 0 
-58 576 0 
-42 -577 59 0 
-59 42 0 
-59 577 0 
-42 -578 60 0 
-60 42 0 
-60 578 0 
-42 -579 61 0 
-61 42 0 
-61 579 0 
-42 -580 62 0 
-62 42 0 
-62 580 0 
43 44 45 46 47 48 49 50 51 52 53 54 55 56 57 58 59 60 61 62 -42 502 0 
42 -502 0 
-63 -581 64 0 
-64 63 0 
-64 581 0 
-63 -582 65 0 
-65 63 0 
-65 582 0 
-63 -583 66 0 
-66 63 0 
-66 583 0 
-63 -584 67 0 
-67 63 0 
-67 584 0 
-63 -585 68 0 
-68 63 0 
-68 585 0 
-63 -586 69 0 
-69 63 0 
-69 586 0 
-63 -587 70 0 
-70 63 0 
-70 587 0 
-63 -588 71 0 
-71 63 0 
-71 588 0 
-63 -589 72 0 
-72 63 0 
-72 589 0 
-63 -590 73 0 
-73 63 0 
-73 590 0 
-63 -591 74 0 
-74 63 0 
-74 591 0 
-63 -592 75 0 
-75 63 0 
-75 592 0 
-63 -593 76 0 
-76 63 0 
-76 593 0 
-63 -594 77 0 
-77 63 0 
-77 594 0 
-63 -595 78 0 
-78 63 0 
-78 595 0 
-63 -596 79 0 
-79 63 0 
-79 596 0 
-63 -597 80 0 
-80 63 0 
-80 597 0 
-63 -598 81 0 
-81 63 0 
-81 598 0 
-63 -599 82 0 
-82 63 0 
-82 599 0 
-63 -600 83 0 
-83 63 0 
-83 600 0 
64 65 66 67 68 69 70 71 72 73 74 75 76 77 78 79 80 81 82 83 -63 503 0 
63 -503 0 
-84 -601 85 0 
-85 84 0 
-85 601 0 
-84 -602 86 0 
-86 84 0 
-86 602 0 
-84 -603 87 0 
-87 84 0 
-87 603 0 
-84 -604 88 0 
-88 84 0 
-88 604 0 
-84 -605 89 0 
-89 84 0 
-89 605 0 
-84 -606 90 0 
-90 84 0 
-90 606 0 
-84 -607 91 0 
-91 84 0 
-91 607 0 
-84 -608 92 0 
-92 84 0 
-92 608 0 
-84 -609 93 0 
-93 84 0 
-93 609 0 
-84 -610 94 0 
-94 84 0 
-94 610 0 
-84 -611 95 0 
-95 84 0 
-95 611 0 
-84 -612 96 0 
-96 84 0 
-96 612 0 
-84 -613 97 0 
-97 84 0 
-97 613 0 
-84 -614 98 0 
-98 84 0 
-98 614 0 
-84 -615 99 0 
-99 84 0 
-99 615 0 
-84 -616 100 0 
-100 84 0 
-100 616 0 
-84 -617 101 0 
-101 84 0 
-101 617 0 
-84 -618 102 0 
-102 84 0 
-102 618 0 
-84 -619 103 0 
-103 84 0 
-103 619 0 
-84 -620 104 0 
-104 84 0 
-104 620 0 
85 86 87 88 89 90 91 92 93 94 95 96 97 98 99 100 101 102 103 104 -84 504 0 
84 -504 0 
-105 -621 106 0 
-106 105 0 
-106 621 0 
-105 -622 107 0 
-107 105 0 
-107 622 0 
-105 -623 108 0 
-108 105 0 
-108 623 0 
-105 -624 109 0 
-109 105 0 
-109 624 0 
-105 -625 110 0 
-110 105 0 
-110 625 0 
-105 -626 111 0 
-111 105 0 
-111 626 0 
-105 -627 112 0 
-112 105 0 
-112 627 0 
-105 -628 113 0 
-113 105 0 
-113 628 0 
-105 -629 114 0 
-114 105 0 
-114 629 0 
-105 -630 115 0 
-115 105 0 
-115 630 0 
-105 -631 116 0 
-116 105 0 
-116 631 0 
-105 -632 117 0 
-117 105 0 
-117 632 0 
-105 -633 118 0 
-118 105 0 
-118 633 0 
-105 -634 119 0 
-119 105 0 
-119 634 0 
-105 -635 120 0 
-120 105 0 
-120 635 0 
-105 -636 121 0 
-121 105 0 
-121 636 0 
-105 -637 122 0 
-122 105 0 
-122 637 0 
-105 -638 123 0 
-123 105 0 
-123 638 0 
-105 -639 124 0 
-124 105 0 
-124 639 0 
-105 -640 125 0 
-125 105 0 
-125 640 0 
106 107 108 109 110 111 112 113 114 115 116 117 118 119 120 121 122 123 124 125 -105 505 0 
105 -505 0 
-126 -641 127 0 
-127 126 0 
-127 641 0 
-126 -642 128 0 
-128 126 0 
-128 642 0 
-126 -643 129 0 
-129 126 0 
-129 643 0 
-126 -644 130 0 
-130 126 0 
-130 644 0 
-126 -645 131 0 
-131 126 0 
-131 645 0 
-126 -646 132 0 
-132 126 0 
-132 646 0 
-126 -647 133 0 
-133 126 0 
-133 647 0 
-126 -648 134 0 
-134 126 0 
-134 648 0 
-126 -649 135 0 
-135 126 0 
-135 649 0 
-126 -650 136 0 
-136 126 0 
-136 650 0 
-126 -651 137 0 
-137 126 0 
-137 651 0 
-126 -652 138 0 
-138 126 0 
-138 652 0 
-126 -653 139 0 
-139 126 0 
-139 653 0 
-126 -654 140 0 
-140 126 0 
-140 654 0 
-126 -655 141 0 
-141 126 0 
-141 655 0 
-126 -656 142 0 
-142 126 0 
-142 656 0 
-126 -657 143 0 
-143 126 0 
-143 657 0 
-126 -658 144 0 
-144 126 0 
-144 658 0 
-126 -659 145 0 
-145 126 0 
-145 659 0 
-126 -660 146 0 
-146 126 0 
-146 660 0 
127 128 129 130 131 132 133 134 135 136 137 138 139 140 141 142 143 144 145 146 -126 506 0 
126 -506 0 
-147 -661 148 0 
-148 147 0 
-148 661 0 
-147 -662 149 0 
-149 147 0 
-149 662 0 
-147 -663 150 0 
-150 147 0 
-150 663 0 
-147 -664 151 0 
-151 147 0 
-151 664 0 
-147 -665 152 0 
-152 147 0 
-152 665 0 
-147 -666 153 0 
-153 147 0 
-153 666 0 
-147 -667 154 0 
-154 147 0 
-154 667 0 
-147 -668 155 0 
-155 147 0 
-155 668 0 
-147 -669 156 0 
-156 147 0 
-156 669 0 
-147 -670 157 0 
-157 147 0 
-157 670 0 
-147 -671 158 0 
-158 147 0 
-158 671 0 
-147 -672 159 0 
-159 147 0 
-159 672 0 
-147 -673 160 0 
-160 147 0 
-160 673 0 
-147 -674 161 0 
-161 147 0 
-161 674 0 
-147 -675 162 0 
-162 147 0 
-162 675 0 
-147 -676 163 0 
-163 147 0 
-163 676 0 
-147 -677 164 0 
-164 147 0 
-164 677 0 
-147 -678 165 0 
-165 147 0 
-165 678 0 
-147 -679 166 0 
-166 147 0 
-166 679 0 
-147 -680 167 0 
-167 147 0 
-167 680 0 
148 149 150 151 152 153 154 155 156 157 158 159 160 161 162 163 164 165 166 167 -147 507 0 
147 -507 0 
-168 -681 169 0 
-169 168 0 
-169 681 0 
-168 -682 170 0 
-170 168 0 
-170 682 0 
-168 -683 171 0 
-171 168 0 
-171 683 0 
-168 -684 172 0 
-172 168 0 
-172 684 0 
-168 -685 173 0 
-173 168 0 
-173 685 0 
-168 -686 174 0 
-174 168 0 
-174 686 0 
-168 -687 175 0 
-175 168 0 
-175 687 0 
-168 -688 176 0 
-176 168 0 
-176 688 0 
-168 -689 177 0 
-177 168 0 
-177 689 0 
-168 -690 178 0 
-178 168 0 
-178 690 0 
-168 -691 179 0 
-179 168 0 
-179 691 0 
-168 -692 180 0 
-180 168 0 
-180 692 0 
-168 -693 181 0 
-181 168 0 
-181 693 0 
-168 -694 182 0 
-182 168 0 
-182 694 0 
-168 -695 183 0 
-183 168 0 
-183 695 0 
-168 -696 184 0 
-184 168 0 
-184 696 0 
-168 -697 185 0 
-185 168 0 
-185 697 0 
-168 -698 186 0 
-186 168 0 
-186 698 0 
-168 -699 187 0 
-187 168 0 
-187 699 0 
-168 -700 188 0 
-188 168 0 
-188 700 0 
169 170 171 172 173 174 175 176 177 178 179 180 181 182 183 184 185 186 187 188 -168 508 0 
168 -508 0 
-189 -701 190 0 
-190 189 0 
-190 701 0 
-189 -702 191 0 
-191 189 0 
-191 702 0 
-189 -703 192 0 
-192 189 0 
-192 703 0 
-189 -704 193 0 
-193 189 0 
-193 704 0 
-189 -705 194 0 
-194 189 0 
-194 705 0 
-189 -706 195 0 
-195 189 0 
-195 706 0 
-189 -707 196 0 
-196 189 0 
-196 707 0 
-189 -708 197 0 
-197 189 0 
-197 708 0 
-189 -709 198 0 
-198 189 0 
-198 709 0 
-189 -710 199 0 
-199 189 0 
-199 710 0 
-189 -711 200 0 
-200 189 0 
-200 711 0 
-189 -712 201 0 
-201 189 0 
-201 712 0 
-189 -713 202 0 
-202 189 0 
-202 713 0 
-189 -714 203 0 
-203 189 0 
-203 714 0 
-189 -715 204 0 
-204 189 0 
-204 715 0 
-189 -716 205 0 
-205 189 0 
-205 716 0 
-189 -717 206 0 
-206 189 0 
-206 717 0 
-189 -718 207 0 
-207 189 0 
-207 718 0 
-189 -719 208 0 
-208 189 0 
-208 719 0 
-189 -720 209 0 
-209 189 0 
-209 720 0 
190 191 192 193 194 195 196 197 198 199 200 201 202 203 204 205 206 207 208 209 -189 509 0 
189 -509 0 
-210 -721 211 0 
-211 210 0 
-211 721 0 
-210 -722 212 0 
-212 210 0 
-212 722 0 
-210 -723 213 0 
-213 210 0 
-213 723 0 
-210 -724 214 0 
-214 210 0 
-214 724 0 
-210 -725 215 0 
-215 210 0 
-215 725 0 
-210 -726 216 0 
-216 210 0 
-216 726 0 
-210 -727 217 0 
-217 210 0 
-217 727 0 
-210 -728 218 0 
-218 210 0 
-218 728 0 
-210 -729 219 0 
-219 210 0 
-219 729 0 
-210 -730 220 0 
-220 210 0 
-220 730 0 
-210 -731 221 0 
-221 210 0 
-221 731 0 
-210 -732 222 0 
-222 210 0 
-222 732 0 
-210 -733 223 0 
-223 210 0 
-223 733 0 
-210 -734 224 0 
-224 210 0 
-224 734 0 
-210 -735 225 0 
-225 210 0 
-225 735 0 
-210 -736 226 0 
-226 210 0 
-226 736 0 
-210 -737 227 0 
-227 210 0 
-227 737 0 
-210 -738 228 0 
-228 210 0 
-228 738 0 
-210 -739 229 0 
-229 210 0 
-229 739 0 
-210 -740 230 0 
-230 210 0 
-230 740 0 
211 212 213 214 215 216 217 218 219 220 221 222 223 224 225 226 227 228 229 230 -210 510 0 
210 -510 0 
-231 -741 232 0 
-232 231 0 
-232 741 0 
-231 -742 233 0 
-233 231 0 
-233 742 0 
-231 -743 234 0 
-234 231 0 
-234 743 0 
-231 -744 235 0 
-235 231 0 
-235 744 0 
-231 -745 236 0 
-236 231 0 
-236 745 0 
-231 -746 237 0 
-237 231 0 
-237 746 0 
-231 -747 238 0 
-238 231 0 
-238 747 0 
-231 -748 239 0 
-239 231 0 
-239 748 0 
-231 -749 240 0 
-240 231 0 
-240 749 0 
-231 -750 241 0 
-241 231 0 
-241 750 0 
-231 -751 242 0 
-242 231 0 
-242 751 0 
-231 -752 243 0 
-243 231 0 
-243 752 0 
-231 -753 244 0 
-244 231 0 
-244 753 0 
-231 -754 245 0 
-245 231 0 
-245 754 0 
-231 -755 246 0 
-246 231 0 
-246 755 0 
-231 -756 247 0 
-247 231 0 
-247 756 0 
-231 -757 248 0 
-248 231 0 
-248 757 0 
-231 -758 249 0 
-249 231 0 
-249 758 0 
-231 -759 250 0 
-250 231 0 
-250 759 0 
-231 -760 251 0 
-251 231 0 
-251 760 0 
232 233 234 235 236 237 238 239 240 241 242 243 244 245 246 247 248 249 250 251 -231 511 0 
231 -511 0 
-252 -761 253 0 
-253 252 0 
-253 761 0 
-252 -762 254 0 
-254 252 0 
-254 762 0 
-252 -763 255 0 
-255 252 0 
-255 763 0 
-252 -764 256 0 
-256 252 0 
-256 764 0 
-252 -765 257 0 
-257 252 0 
-257 765 0 
-252 -766 258 0 
-258 252 0 
-258 766 0 
-252 -767 259 0 
-259 252 0 
-259 767 0 
-252 -768 260 0 
-260 252 0 
-260 768 0 
-252 -769 261 0 
-261 252 0 
-261 769 0 
-252 -770 262 0 
-262 252 0 
-262 770 0 
-252 -771 263 0 
-263 252 0 
-263 771 0 
-252 -772 264 0 
-264 252 0 
-264 772 0 
-252 -773 265 0 
-265 252 0 
-265 773 0 
-252 -774 266 0 
-266 252 0 
-266 774 0 
-252 -775 267 0 
-267 252 0 
-267 775 0 
-252 -776 268 0 
-268 252 0 
-268 776 0 
-252 -777 269 0 
-269 252 0 
-269 777 0 
-252 -778 270 0 
-270 252 0 
-270 778 0 
-252 -779 271 0 
-271 252 0 
-271 779 0 
-252 -780 272 0 
-272 252 0 
-272 780 0 
253 254 255 256 257 258 259 260 261 262 263 264 265 266 267 268 269 270 271 272 -252 512 0 
252 -512 0 
-273 -781 274 0 
-274 273 0 
-274 781 0 
-273 -782 275 0 
-275 273 0 
-275 782 0 
-273 -783 276 0 
-276 273 0 
-276 783 0 
-273 -784 277 0 
-277 273 0 
-277 784 0 
-273 -785 278 0 
-278 273 0 
-278 785 0 
-273 -786 279 0 
-279 273 0 
-279 786 0 
-273 -787 280 0 
-280 273 0 
-280 787 0 
-273 -788 281 0 
-281 273 0 
-281 788 0 
-273 -789 282 0 
-282 273 0 
-282 789 0 
-273 -790 283 0 
-283 273 0 
-283 790 0 
-273 -791 284 0 
-284 273 0 
-284 791 0 
-273 -792 285 0 
-285 273 0 
-285 792 0 
-273 -793 286 0 
-286 273 0 
-286 793 0 
-273 -794 287 0 
-287 273 0 
-287 794 0 
-273 -795 288 0 
-288 273 0 
-288 795 0 
-273 -796 289 0 
-289 273 0 
-289 796 0 
-273 -797 290 0 
-290 273 0 
-290 797 0 
-273 -798 291 0 
-291 273 0 
-291 798 0 
-273 -799 292 0 
-292 273 0 
-292 799 0 
-273 -800 293 0 
-293 273 0 
-293 800 0 
274 275 276 277 278 279 280 281 282 283 284 285 286 287 288 289 290 291 292 293 -273 513 0 
273 -513 0 
-294 -801 295 0 
-295 294 0 
-295 801 0 
-294 -802 296 0 
-296 294 0 
-296 802 0 
-294 -803 297 0 
-297 294 0 
-297 803 0 
-294 -804 298 0 
-298 294 0 
-298 804 0 
-294 -805 299 0 
-299 294 0 
-299 805 0 
-294 -806 300 0 
-300 294 0 
-300 806 0 
-294 -807 301 0 
-301 294 0 
-301 807 0 
-294 -808 302 0 
-302 294 0 
-302 808 0 
-294 -809 303 0 
-303 294 0 
-303 809 0 
-294 -810 304 0 
-304 294 0 
-304 810 0 
-294 -811 305 0 
-305 294 0 
-305 811 0 
-294 -812 306 0 
-306 294 0 
-306 812 0 
-294 -813 307 0 
-307 294 0 
-307 813 0 
-294 -814 308 0 
-308 294 0 
-308 814 0 
-294 -815 309 0 
-309 294 0 
-309 815 0 
-294 -816 310 0 
-310 294 0 
-310 816 0 
-294 -817 311 0 
-311 294 0 
-311 817 0 
-294 -818 312 0 
-312 294 0 
-312 818 0 
-294 -819 313 0 
-313 294 0 
-313 819 0 
-294 -820 314 0 
-314 294 0 
-314 820 0 
295 296 297 298 299 300 301 302 303 304 305 306 307 308 309 310 311 312 313 314 -294 514 0 
294 -514 0 
-315 -821 316 0 
-316 315 0 
-316 821 0 
-315 -822 317 0 
-317 315 0 
-317 822 0 
-315 -823 318 0 
-318 315 0 
-318 823 0 
-315 -824 319 0 
-319 315 0 
-319 824 0 
-315 -825 320 0 
-320 315 0 
-320 825 0 
-315 -826 321 0 
-321 315 0 
-321 826 0 
-315 -827 322 0 
-322 315 0 
-322 827 0 
-315 -828 323 0 
-323 315 0 
-323 828 0 
-315 -829 324 0 
-324 315 0 
-324 829 0 
-315 -830 325 0 
-325 315 0 
-325 830 0 
-315 -831 326 0 
-326 315 0 
-326 831 0 
-315 -832 327 0 
-327 315 0 
-327 832 0 
-315 -833 328 0 
-328 315 0 
-328 833 0 
-315 -834 329 0 
-329 315 0 
-329 834 0 
-315 -835 330 0 
-330 315 0 
-330 835 0 
-315 -836 331 0 
-331 315 0 
-331 836 0 
-315 -837 332 0 
-332 315 0 
-332 837 0 
-315 -838 333 0 
-333 315 0 
-333 838 0 
-315 -839 334 0 
-334 315 0 
-334 839 0 
-315 -840 335 0 
-335 315 0 
-335 840 0 
316 317 318 319 320 321 322 323 324 325 326 327 328 329 330 331 332 333 334 335 -315 515 0 
315 -515 0 
-336 -841 337 0 
-337 336 0 
-337 841 0 
-336 -842 338 0 
-338 336 0 
-338 842 0 
-336 -843 339 0 
-339 336 0 
-339 843 0 
-336 -844 340 0 
-340 336 0 
-340 844 0 
-336 -845 341 0 
-341 336 0 
-341 845 0 
-336 -846 342 0 
-342 336 0 
-342 846 0 
-336 -847 343 0 
-343 336 0 
-343 847 0 
-336 -848 344 0 
-344 336 0 
-344 848 0 
-336 -849 345 0 
-345 336 0 
-345 849 0 
-336 -850 346 0 
-346 336 0 
-346 850 0 
-336 -851 347 0 
-347 336 0 
-347 851 0 
-336 -852 348 0 
-348 336 0 
-348 852 0 
-336 -853 349 0 
-349 336 0 
-349 853 0 
-336 -854 350 0 
-350 336 0 
-350 854 0 
-336 -855 351 0 
-351 336 0 
-351 855 0 
-336 -856 352 0 
-352 336 0 
-352 856 0 
-336 -857 353 0 
-353 336 0 
-353 857 0 
-336 -858 354 0 
-354 336 0 
-354 858 0 
-336 -859 355 0 
-355 336 0 
-355 859 0 
-336 -860 356 0 
-356 336 0 
-356 860 0 
337 338 339 340 341 342 343 344 345 346 347 348 349 350 351 352 353 354 355 356 -336 516 0 
336 -516 0 
-357 -861 358 0 
-358 357 0 
-358 861 0 
-357 -862 359 0 
-359 357 0 
-359 862 0 
-357 -863 360 0 
-360 357 0 
-360 863 0 
-357 -864 361 0 
-361 357 0 
-361 864 0 
-357 -865 362 0 
-362 357 0 
-362 865 0 
-357 -866 363 0 
-363 357 0 
-363 866 0 
-357 -867 364 0 
-364 357 0 
-364 867 0 
-357 -868 365 0 
-365 357 0 
-365 868 0 
-357 -869 366 0 
-366 357 0 
-366 869 0 
-357 -870 367 0 
-367 357 0 
-367 870 0 
-357 -871 368 0 
-368 357 0 
-368 871 0 
-357 -872 369 0 
-369 357 0 
-369 872 0 
-357 -873 370 0 
-370 357 0 
-370 873 0 
-357 -874 371 0 
-371 357 0 
-371 874 0 
-357 -875 372 0 
-372 357 0 
-372 875 0 
-357 -876 373 0 
-373 357 0 
-373 876 0 
-357 -877 374 0 
-374 357 0 
-374 877 0 
-357 -878 375 0 
-375 357 0 
-375 878 0 
-357 -879 376 0 
-376 357 0 
-376 879 0 
-357 -880 377 0 
-377 357 0 
-377 880 0 
358 359 360 361 362 363 364 365 366 367 368 369 370 371 372 373 374 375 376 377 -357 517 0 
357 -517 0 
-378 -881 379 0 
-379 378 0 
-379 881 0 
-378 -882 380 0 
-380 378 0 
-380 882 0 
-378 -883 381 0 
-381 378 0 
-381 883 0 
-378 -884 382 0 
-382 378 0 
-382 884 0 
-378 -885 383 0 
-383 378 0 
-383 885 0 
-378 -886 384 0 
-384 378 0 
-384 886 0 
-378 -887 385 0 
-385 378 0 
-385 887 0 
-378 -888 386 0 
-386 378 0 
-386 888 0 
-378 -889 387 0 
-387 378 0 
-387 889 0 
-378 -890 388 0 
-388 378 0 
-388 890 0 
-378 -891 389 0 
-389 378 0 
-389 891 0 
-378 -892 390 0 
-390 378 0 
-390 892 0 
-378 -893 391 0 
-391 378 0 
-391 893 0 
-378 -894 392 0 
-392 378 0 
-392 894 0 
-378 -895 393 0 
-393 378 0 
-393 895 0 
-378 -896 394 0 
-394 378 0 
-394 896 0 
-378 -897 395 0 
-395 378 0 
-395 897 0 
-378 -898 396 0 
-396 378 0 
-396 898 0 
-378 -899 397 0 
-397 378 0 
-397 899 0 
-378 -900 398 0 
-398 378 0 
-398 900 0 
379 380 381 382 383 384 385 386 387 388 389 390 391 392 393 394 395 396 397 398 -378 518 0 
378 -518 0 
-399 -901 400 0 
-400 399 0 
-400 901 0 
-399 -902 401 0 
-401 399 0 
-401 902 0 
-399 -903 402 0 
-402 399 0 
-402 903 0 
-399 -904 403 0 
-403 399 0 
-403 904 0 
-399 -905 404 0 
-404 399 0 
-404 905 0 
-399 -906 405 0 
-405 399 0 
-405 906 0 
-399 -907 406 0 
-406 399 0 
-406 907 0 
-399 -908 407 0 
-407 399 0 
-407 908 0 
-399 -909 408 0 
-408 399 0 
-408 909 0 
-399 -910 409 0 
-409 399 0 
-409 910 0 
-399 -911 410 0 
-410 399 0 
-410 911 0 
-399 -912 411 0 
-411 399 0 
-411 912 0 
-399 -913 412 0 
-412 399 0 
-412 913 0 
-399 -914 413 0 
-413 399 0 
-413 914 0 
-399 -915 414 0 
-414 399 0 
-414 915 0 
-399 -916 415 0 
-415 399 0 
-415 916 0 
-399 -917 416 0 
-416 399 0 
-416 917 0 
-399 -918 417 0 
-417 399 0 
-417 918 0 
-399 -919 418 0 
-418 399 0 
-418 919 0 
-399 -920 419 0 
-419 399 0 
-419 920 0 
400 401 402 403 404 405 406 407 408 409 410 411 412 413 414 415 416 417 418 419 -399 519 0 
399 -519 0 
-420 -921 421 0 
-421 420 0 
-421 921 0 
-420 -922 422 0 
-422 420 0 
-422 922 0 
-420 -923 423 0 
-423 420 0 
-423 923 0 
-420 -924 424 0 
-424 420 0 
-424 924 0 
-420 -925 425 0 
-425 420 0 
-425 925 0 
-420 -926 426 0 
-426 420 0 
-426 926 0 
-420 -927 427 0 
-427 420 0 
-427 927 0 
-420 -928 428 0 
-428 420 0 
-428 928 0 
-420 -929 429 0 
-429 420 0 
-429 929 0 
-420 -930 430 0 
-430 420 0 
-430 930 0 
-420 -931 431 0 
-431 420 0 
-431 931 0 
-420 -932 432 0 
-432 420 0 
-432 932 0 
-420 -933 433 0 
-433 420 0 
-433 933 0 
-420 -934 434 0 
-434 420 0 
-434 934 0 
-420 -935 435 0 
-435 420 0 
-435 935 0 
-420 -936 436 0 
-436 420 0 
-436 936 0 
-420 -937 437 0 
-437 420 0 
-437 937 0 
-420 -938 438 0 
-438 420 0 
-438 938 0 
-420 -939 439 0 
-439 420 0 
-439 939 0 
-420 -940 440 0 
-440 420 0 
-440 940 0 
421 422 423 424 425 426 427 428 429 430 431 432 433 434 435 436 437 438 439 440 -420 520 0 
420 -520 0 
-441 -941 442 0 
-442 441 0 
-442 941 0 
442 -441 521 0 
441 -521 0 
-443 -942 444 0 
-444 443 0 
-444 942 0 
444 -443 522 0 
443 -522 0 
-445 -943 446 0 
-446 445 0 
-446 943 0 
446 -445 523 0 
445 -523 0 
-447 -944 448 0 
-448 447 0 
-448 944 0 
448 -447 524 0 
447 -524 0 
-449 -945 450 0 
-450 449 0 
-450 945 0 
450 -449 525 0 
449 -525 0 
-451 -946 452 0 
-452 451 0 
-452 946 0 
452 -451 526 0 
451 -526 0 
-453 -947 454 0 
-454 453 0 
-454 947 0 
454 -453 527 0 
453 -527 0 
-455 -948 456 0 
-456 455 0 
-456 948 0 
456 -455 528 0 
455 -528 0 
-457 -949 458 0 
-458 457 0 
-458 949 0 
458 -457 529 0 
457 -529 0 
-459 -950 460 0 
-460 459 0 
-460 950 0 
460 -459 530 0 
459 -530 0 
-461 -951 462 0 
-462 461 0 
-462 951 0 
462 -461 531 0 
461 -531 0 
-463 -952 464 0 
-464 463 0 
-464 952 0 
464 -463 532 0 
463 -532 0 
-465 -953 466 0 
-466 465 0 
-466 953 0 
466 -465 533 0 
465 -533 0 
-467 -954 468 0 
-468 467 0 
-468 954 0 
468 -467 534 0 
467 -534 0 
-469 -955 470 0 
-470 469 0 
-470 955 0 
470 -469 535 0 
469 -535 0 
-471 -956 472 0 
-472 471 0 
-472 956 0 
472 -471 536 0 
471 -536 0 
-473 -957 474 0 
-474 473 0 
-474 957 0 
474 -473 537 0 
473 -537 0 
-475 -958 476 0 
-476 475 0 
-476 958 0 
476 -475 538 0 
475 -538 0 
-477 -959 478 0 
-478 477 0 
-478 959 0 
478 -477 539 0 
477 -539 0 
-479 -960 480 0 
-480 479 0 
-480 960 0 
480 -479 540 0 
479 -540 0 
